% Generated FlatZinc statistics:
%%%mzn-stat: paths=0
%%%mzn-stat: flatBoolVars=7
%%%mzn-stat: flatIntVars=9
%%%mzn-stat: flatBoolConstraints=3
%%%mzn-stat: flatIntConstraints=12
%%%mzn-stat: evaluatedReifiedConstraints=1
%%%mzn-stat: evaluatedHalfReifiedConstraints=6
%%%mzn-stat: method="minimize"
%%%mzn-stat: flatTime=0.108131
%%%mzn-stat-end
Solucao encontrada:
Turma 1: Sala = 1, Horario = 2
Turma 2: Sala = 1, Horario = 1
Turma 3: Sala = 1, Horario = 3

Violacao da Restricao C4 (preferencia): false
----------
==========
%%%mzn-stat: initTime=0.001684
%%%mzn-stat: solveTime=0.0004084
%%%mzn-stat: solutions=1
%%%mzn-stat: variables=16
%%%mzn-stat: propagators=14
%%%mzn-stat: propagations=28
%%%mzn-stat: nodes=5
%%%mzn-stat: failures=1
%%%mzn-stat: restarts=0
%%%mzn-stat: peakDepth=4
%%%mzn-stat-end
%%%mzn-stat: nSolutions=1
%%%mzn-stat-end